clingo version 5.7.1
Reading from stdin
Solving...
SATISFIABLE

Models       : 34810736
Calls        : 1
Time         : 14988.031s (Solving: 14979.15s 1st Model: 0.03s Unsat: 1.33s)
CPU Time     : 14986.542s
